benchmark/results/graph__15-1000-0.10-02_16/error_log/graph__15-1000-0.10-02_16_Quinton_Benders_sub_ERRORLOG.lp
\ This file has been generated by DOcplex
\ ENCODING=ISO-8859-1
\Problem name: Quinton Benders_dual_sub

Minimize
 obj: 0.002252252252 pi_nr_a0 + 0.001199040767 pi_nr_a1
      + 0.001964636542 pi_nr_a2 + 0.000833333333 pi_nr_a3
      + 0.000966183575 pi_nr_a4 + 0.001733102253 pi_nr_a5
      + 0.003184713376 pi_nr_a6 + 0.000916590284 pi_nr_a7
      + 0.000967117988 pi_nr_a8 + 0.001070663812 pi_nr_a9
      + 0.000879507476 pi_nr_a10 + 0.002159827214 pi_nr_a11
      + 0.000919963201 pi_nr_a12 + 0.001039501040 pi_nr_a13
      + 0.001054852321 pi_nr_a14 + pi_p_a2_a3 + pi_p_a1_a5 + pi_p_a5_a8
      + pi_p_a12_a5 + pi_p_a14_a12 + pi_p_a13_a13 + pi_p_a11_a11 + pi_p_a5_a5
      + 2 pi_p_a10_a8 + 2600 pi_d_a0_a1_proc_1 + pi_d_a1_a0_proc_0
      + 2601 pi_d_a1_a0_proc_1 + pi_d_a0_a2_proc_0 + 2601 pi_d_a0_a2_proc_1
      + 2600 pi_d_a2_a0_proc_1 + 2602 pi_d_a0_a3_proc_0 + 2602 pi_d_a0_a3_proc_1
      - pi_d_a3_a0_proc_0 - pi_d_a3_a0_proc_1 + 2 pi_d_a0_a4_proc_1
      + 2599 pi_d_a4_a0_proc_1 + pi_d_a0_a5_proc_0 + 2601 pi_d_a0_a5_proc_1
      + 2600 pi_d_a5_a0_proc_1 + 2 pi_d_a0_a6_proc_0 + 2602 pi_d_a0_a6_proc_1
      - pi_d_a6_a0_proc_0 + 2599 pi_d_a6_a0_proc_1 + 2602 pi_d_a0_a7_proc_0
      + 2602 pi_d_a0_a7_proc_1 - pi_d_a7_a0_proc_0 - pi_d_a7_a0_proc_1
      + 2602 pi_d_a0_a8_proc_1 - pi_d_a8_a0_proc_1 + 2600 pi_d_a0_a9_proc_0
      + 2600 pi_d_a0_a9_proc_1 + pi_d_a9_a0_proc_0 + pi_d_a9_a0_proc_1
      + pi_d_a10_a0_proc_0 + pi_d_a0_a11_proc_0 + 2601 pi_d_a0_a11_proc_1
      + 2600 pi_d_a11_a0_proc_1 + pi_d_a0_a12_proc_0 + 2601 pi_d_a0_a12_proc_1
      + 2600 pi_d_a12_a0_proc_1 - 999998699 pi_d_a0_a13_proc_1
      + 1000001300 pi_d_a13_a0_proc_1 + 2600 pi_d_a0_a14_proc_1
      + pi_d_a14_a0_proc_0 + 2601 pi_d_a14_a0_proc_1 + pi_d_a1_a2_proc_0
      + 2601 pi_d_a1_a2_proc_1 + 2600 pi_d_a2_a1_proc_1 + 2602 pi_d_a1_a3_proc_0
      + 2602 pi_d_a1_a3_proc_1 - pi_d_a3_a1_proc_0 - pi_d_a3_a1_proc_1
      + pi_d_a1_a4_proc_1 + 2600 pi_d_a4_a1_proc_1 + pi_d_a1_a5_proc_0
      + 2601 pi_d_a1_a5_proc_1 + 2600 pi_d_a5_a1_proc_1 + 2 pi_d_a1_a6_proc_0
      + 2602 pi_d_a1_a6_proc_1 - pi_d_a6_a1_proc_0 + 2599 pi_d_a6_a1_proc_1
      + 2602 pi_d_a1_a7_proc_0 + 2602 pi_d_a1_a7_proc_1 - pi_d_a7_a1_proc_0
      - pi_d_a7_a1_proc_1 + 2602 pi_d_a1_a8_proc_1 - pi_d_a8_a1_proc_1
      + 2600 pi_d_a1_a9_proc_0 + 2600 pi_d_a1_a9_proc_1 + pi_d_a9_a1_proc_0
      + pi_d_a9_a1_proc_1 + pi_d_a10_a1_proc_0 + pi_d_a1_a11_proc_0
      + 2601 pi_d_a1_a11_proc_1 + 2600 pi_d_a11_a1_proc_1 + pi_d_a1_a12_proc_0
      + 2601 pi_d_a1_a12_proc_1 + 2600 pi_d_a12_a1_proc_1
      - 999998699 pi_d_a1_a13_proc_1 + 1000001300 pi_d_a13_a1_proc_1
      + 2600 pi_d_a1_a14_proc_1 + pi_d_a14_a1_proc_0 + 2601 pi_d_a14_a1_proc_1
      + 2601 pi_d_a2_a3_proc_0 + 2601 pi_d_a2_a3_proc_1 + pi_d_a2_a4_proc_1
      + 2600 pi_d_a4_a2_proc_1 + pi_d_a2_a5_proc_0 + 2601 pi_d_a2_a5_proc_1
      + 2600 pi_d_a5_a2_proc_1 + pi_d_a2_a6_proc_0 + 2601 pi_d_a2_a6_proc_1
      + 2600 pi_d_a6_a2_proc_1 + pi_d_a2_a7_proc_0 + pi_d_a2_a7_proc_1
      + 2600 pi_d_a7_a2_proc_0 + 2600 pi_d_a7_a2_proc_1 + 2602 pi_d_a2_a8_proc_1
      - pi_d_a8_a2_proc_1 + 2601 pi_d_a9_a2_proc_0 + 2601 pi_d_a9_a2_proc_1
      + pi_d_a10_a2_proc_0 + 2600 pi_d_a2_a11_proc_1 + pi_d_a11_a2_proc_0
      + 2601 pi_d_a11_a2_proc_1 + 2600 pi_d_a2_a12_proc_1 + pi_d_a12_a2_proc_0
      + 2601 pi_d_a12_a2_proc_1 - 999998699 pi_d_a2_a13_proc_1
      + 1000001300 pi_d_a13_a2_proc_1 - pi_d_a2_a14_proc_0
      + 2599 pi_d_a2_a14_proc_1 + 2 pi_d_a14_a2_proc_0 + 2602 pi_d_a14_a2_proc_1
      + pi_d_a4_a3_proc_1 + 2600 pi_d_a3_a5_proc_0 + 2600 pi_d_a3_a5_proc_1
      + pi_d_a5_a3_proc_0 + pi_d_a5_a3_proc_1 + 2600 pi_d_a3_a6_proc_0
      + 2600 pi_d_a3_a6_proc_1 + pi_d_a6_a3_proc_0 + pi_d_a6_a3_proc_1
      + 2600 pi_d_a3_a7_proc_0 + 2601 pi_d_a7_a3_proc_0 + pi_d_a7_a3_proc_1
      + pi_d_a3_a8_proc_1 + 2599 pi_d_a3_a9_proc_0 - pi_d_a3_a9_proc_1
      + 2602 pi_d_a9_a3_proc_0 + 2 pi_d_a9_a3_proc_1 + 2599 pi_d_a3_a10_proc_0
      + 2 pi_d_a10_a3_proc_0 - pi_d_a3_a11_proc_0 - pi_d_a3_a11_proc_1
      + 2602 pi_d_a11_a3_proc_0 + 2602 pi_d_a11_a3_proc_1 - pi_d_a3_a12_proc_0
      - pi_d_a3_a12_proc_1 + 2602 pi_d_a12_a3_proc_0 + 2602 pi_d_a12_a3_proc_1
      - 999999999 pi_d_a3_a13_proc_1 + 1000000000 pi_d_a13_a3_proc_1
      + 2598 pi_d_a3_a14_proc_0 + 2598 pi_d_a3_a14_proc_1 + 3 pi_d_a14_a3_proc_0
      + 3 pi_d_a14_a3_proc_1 + 2601 pi_d_a4_a5_proc_1 + pi_d_a4_a6_proc_1
      + 2600 pi_d_a6_a4_proc_1 + pi_d_a4_a7_proc_1 + 2 pi_d_a4_a8_proc_1
      - pi_d_a8_a4_proc_1 + pi_d_a9_a4_proc_1 + 2601 pi_d_a11_a4_proc_1
      + 2600 pi_d_a4_a12_proc_1 + pi_d_a12_a4_proc_1
      - 999999998 pi_d_a4_a13_proc_1 + 999999999 pi_d_a13_a4_proc_1
      - pi_d_a4_a14_proc_1 + 2602 pi_d_a14_a4_proc_1 + pi_d_a5_a6_proc_0
      + 2601 pi_d_a5_a6_proc_1 + 2600 pi_d_a6_a5_proc_1 + 2601 pi_d_a5_a7_proc_0
      + 2601 pi_d_a5_a7_proc_1 + 2601 pi_d_a5_a8_proc_1 + 2600 pi_d_a5_a9_proc_0
      + 2600 pi_d_a5_a9_proc_1 + pi_d_a9_a5_proc_0 + pi_d_a9_a5_proc_1
      - pi_d_a5_a10_proc_0 + 2 pi_d_a10_a5_proc_0 + 2600 pi_d_a5_a11_proc_1
      + pi_d_a11_a5_proc_0 + 2601 pi_d_a11_a5_proc_1 + 2600 pi_d_a5_a12_proc_1
      + pi_d_a12_a5_proc_0 + 2601 pi_d_a12_a5_proc_1
      - 999998699 pi_d_a5_a13_proc_1 + 1000001300 pi_d_a13_a5_proc_1
      - pi_d_a5_a14_proc_0 + 2599 pi_d_a5_a14_proc_1 + 2 pi_d_a14_a5_proc_0
      + 2602 pi_d_a14_a5_proc_1 + 2601 pi_d_a6_a7_proc_0
      + 2601 pi_d_a6_a7_proc_1 + 2601 pi_d_a6_a8_proc_1 - pi_d_a6_a9_proc_0
      - pi_d_a6_a9_proc_1 + 2602 pi_d_a9_a6_proc_0 + 2602 pi_d_a9_a6_proc_1
      - pi_d_a6_a10_proc_0 + 2 pi_d_a10_a6_proc_0 + 2600 pi_d_a6_a11_proc_1
      + pi_d_a11_a6_proc_0 + 2601 pi_d_a11_a6_proc_1 - pi_d_a6_a12_proc_0
      + 2599 pi_d_a6_a12_proc_1 + 2 pi_d_a12_a6_proc_0 + 2602 pi_d_a12_a6_proc_1
      - 999998699 pi_d_a6_a13_proc_1 + 1000001300 pi_d_a13_a6_proc_1
      - pi_d_a6_a14_proc_0 + 2599 pi_d_a6_a14_proc_1 + 2 pi_d_a14_a6_proc_0
      + 2602 pi_d_a14_a6_proc_1 + pi_d_a7_a8_proc_1 + 2599 pi_d_a7_a9_proc_0
      - pi_d_a7_a9_proc_1 + 2602 pi_d_a9_a7_proc_0 + 2 pi_d_a9_a7_proc_1
      + 2599 pi_d_a7_a10_proc_0 + 2 pi_d_a10_a7_proc_0 + 2599 pi_d_a7_a11_proc_0
      + 2599 pi_d_a7_a11_proc_1 + 2 pi_d_a11_a7_proc_0 + 2 pi_d_a11_a7_proc_1
      + 2599 pi_d_a7_a12_proc_0 + 2599 pi_d_a7_a12_proc_1 + 2 pi_d_a12_a7_proc_0
      + 2 pi_d_a12_a7_proc_1 - 999999999 pi_d_a7_a13_proc_1
      + 1000000000 pi_d_a13_a7_proc_1 - 2 pi_d_a7_a14_proc_0
      - 2 pi_d_a7_a14_proc_1 + 2603 pi_d_a14_a7_proc_0 + 2603 pi_d_a14_a7_proc_1
      - pi_d_a8_a9_proc_1 + 2 pi_d_a9_a8_proc_1 - pi_d_a8_a11_proc_1
      + 2602 pi_d_a11_a8_proc_1 + 2599 pi_d_a8_a12_proc_1 + 2 pi_d_a12_a8_proc_1
      - 999999999 pi_d_a8_a13_proc_1 + 1000000000 pi_d_a13_a8_proc_1
      + 2598 pi_d_a8_a14_proc_1 + 3 pi_d_a14_a8_proc_1 + 2600 pi_d_a9_a10_proc_0
      + pi_d_a10_a9_proc_0 + 2601 pi_d_a9_a11_proc_0 + 2601 pi_d_a9_a11_proc_1
      + 2600 pi_d_a9_a12_proc_0 + 2600 pi_d_a9_a12_proc_1 + pi_d_a12_a9_proc_0
      + pi_d_a12_a9_proc_1 - 999999998 pi_d_a9_a13_proc_1
      + 999999999 pi_d_a13_a9_proc_1 + 2600 pi_d_a9_a14_proc_0
      + 2600 pi_d_a9_a14_proc_1 + pi_d_a14_a9_proc_0 + pi_d_a14_a9_proc_1
      + pi_d_a10_a11_proc_0 + pi_d_a10_a12_proc_0 + pi_d_a14_a10_proc_0
      + 2600 pi_d_a11_a12_proc_1 + pi_d_a12_a11_proc_0
      + 2601 pi_d_a12_a11_proc_1 - 999998699 pi_d_a11_a13_proc_1
      + 1000001300 pi_d_a13_a11_proc_1 + 2600 pi_d_a11_a14_proc_1
      + pi_d_a14_a11_proc_0 + 2601 pi_d_a14_a11_proc_1
      - 999998699 pi_d_a12_a13_proc_1 + 1000001300 pi_d_a13_a12_proc_1
      + 2600 pi_d_a12_a14_proc_1 + pi_d_a14_a12_proc_0
      + 2601 pi_d_a14_a12_proc_1 + 1000001300 pi_d_a13_a14_proc_1
      - 999998699 pi_d_a14_a13_proc_1 + pi_y2_a0_proc_0 + pi_y2_a1_proc_0
      + pi_y2_a2_proc_0 + pi_y2_a3_proc_1 + pi_y2_a4_proc_1 + pi_y2_a5_proc_0
      + pi_y2_a6_proc_0 + pi_y2_a7_proc_1 + pi_y2_a8_proc_1 + pi_y2_a9_proc_1
      + pi_y2_a10_proc_0 + pi_y2_a11_proc_0 + pi_y2_a12_proc_0
      + pi_y2_a13_proc_1 + pi_y2_a14_proc_0
Subject To
 c1: pi_nr_a0 + pi_nr_a1 + pi_nr_a2 + pi_nr_a3 + pi_nr_a4 + pi_nr_a5 + pi_nr_a6
     + pi_nr_a7 + pi_nr_a8 + pi_nr_a9 + pi_nr_a10 + pi_nr_a11 + pi_nr_a12
     + pi_nr_a13 + pi_nr_a14 - pi_y1_a0 - pi_y1_a1 - pi_y1_a2 - pi_y1_a3
     - pi_y1_a4 - pi_y1_a5 - pi_y1_a6 - pi_y1_a7 - pi_y1_a8 - pi_y1_a9
     - pi_y1_a10 - pi_y1_a11 - pi_y1_a12 - pi_y1_a13 - pi_y1_a14 >= 1
 c2: pi_p_a0_a1 - pi_p_a2_a0 + pi_d_a0_a1_proc_0 + pi_d_a0_a1_proc_1
     - pi_d_a1_a0_proc_0 - pi_d_a1_a0_proc_1 + pi_d_a0_a2_proc_0
     + pi_d_a0_a2_proc_1 - pi_d_a2_a0_proc_0 - pi_d_a2_a0_proc_1
     + pi_d_a0_a3_proc_0 + pi_d_a0_a3_proc_1 - pi_d_a3_a0_proc_0
     - pi_d_a3_a0_proc_1 + pi_d_a0_a4_proc_1 - pi_d_a4_a0_proc_1
     + pi_d_a0_a5_proc_0 + pi_d_a0_a5_proc_1 - pi_d_a5_a0_proc_0
     - pi_d_a5_a0_proc_1 + pi_d_a0_a6_proc_0 + pi_d_a0_a6_proc_1
     - pi_d_a6_a0_proc_0 - pi_d_a6_a0_proc_1 + pi_d_a0_a7_proc_0
     + pi_d_a0_a7_proc_1 - pi_d_a7_a0_proc_0 - pi_d_a7_a0_proc_1
     + pi_d_a0_a8_proc_1 - pi_d_a8_a0_proc_1 + pi_d_a0_a9_proc_0
     + pi_d_a0_a9_proc_1 - pi_d_a9_a0_proc_0 - pi_d_a9_a0_proc_1
     + pi_d_a0_a10_proc_0 - pi_d_a10_a0_proc_0 + pi_d_a0_a11_proc_0
     + pi_d_a0_a11_proc_1 - pi_d_a11_a0_proc_0 - pi_d_a11_a0_proc_1
     + pi_d_a0_a12_proc_0 + pi_d_a0_a12_proc_1 - pi_d_a12_a0_proc_0
     - pi_d_a12_a0_proc_1 + pi_d_a0_a13_proc_1 - pi_d_a13_a0_proc_1
     + pi_d_a0_a14_proc_0 + pi_d_a0_a14_proc_1 - pi_d_a14_a0_proc_0
     - pi_d_a14_a0_proc_1 >= 0
 c3: 444 pi_p_a0_a1 + 444 pi_d_a0_a1_proc_0 + 444 pi_d_a0_a2_proc_0
     + 444 pi_d_a0_a3_proc_0 + 444 pi_d_a0_a5_proc_0 + 444 pi_d_a0_a6_proc_0
     + 444 pi_d_a0_a7_proc_0 + 444 pi_d_a0_a9_proc_0 + 444 pi_d_a0_a10_proc_0
     + 444 pi_d_a0_a11_proc_0 + 444 pi_d_a0_a12_proc_0 + 444 pi_d_a0_a14_proc_0
     + pi_y1_a0 + pi_y2_a0_proc_0 >= 0
 c4: 676 pi_p_a0_a1 + 676 pi_d_a0_a1_proc_1 + 676 pi_d_a0_a2_proc_1
     + 676 pi_d_a0_a3_proc_1 + 676 pi_d_a0_a4_proc_1 + 676 pi_d_a0_a5_proc_1
     + 676 pi_d_a0_a6_proc_1 + 676 pi_d_a0_a7_proc_1 + 676 pi_d_a0_a8_proc_1
     + 676 pi_d_a0_a9_proc_1 + 676 pi_d_a0_a11_proc_1 + 676 pi_d_a0_a12_proc_1
     + 676 pi_d_a0_a13_proc_1 + 676 pi_d_a0_a14_proc_1 + pi_y1_a0
     + pi_y2_a0_proc_1 >= 0
 c5: - pi_p_a0_a1 + pi_p_a1_a5 + pi_p_a1_a10 + pi_p_a1_a14 - pi_d_a0_a1_proc_0
     - pi_d_a0_a1_proc_1 + pi_d_a1_a0_proc_0 + pi_d_a1_a0_proc_1
     + pi_d_a1_a2_proc_0 + pi_d_a1_a2_proc_1 - pi_d_a2_a1_proc_0
     - pi_d_a2_a1_proc_1 + pi_d_a1_a3_proc_0 + pi_d_a1_a3_proc_1
     - pi_d_a3_a1_proc_0 - pi_d_a3_a1_proc_1 + pi_d_a1_a4_proc_1
     - pi_d_a4_a1_proc_1 + pi_d_a1_a5_proc_0 + pi_d_a1_a5_proc_1
     - pi_d_a5_a1_proc_0 - pi_d_a5_a1_proc_1 + pi_d_a1_a6_proc_0
     + pi_d_a1_a6_proc_1 - pi_d_a6_a1_proc_0 - pi_d_a6_a1_proc_1
     + pi_d_a1_a7_proc_0 + pi_d_a1_a7_proc_1 - pi_d_a7_a1_proc_0
     - pi_d_a7_a1_proc_1 + pi_d_a1_a8_proc_1 - pi_d_a8_a1_proc_1
     + pi_d_a1_a9_proc_0 + pi_d_a1_a9_proc_1 - pi_d_a9_a1_proc_0
     - pi_d_a9_a1_proc_1 + pi_d_a1_a10_proc_0 - pi_d_a10_a1_proc_0
     + pi_d_a1_a11_proc_0 + pi_d_a1_a11_proc_1 - pi_d_a11_a1_proc_0
     - pi_d_a11_a1_proc_1 + pi_d_a1_a12_proc_0 + pi_d_a1_a12_proc_1
     - pi_d_a12_a1_proc_0 - pi_d_a12_a1_proc_1 + pi_d_a1_a13_proc_1
     - pi_d_a13_a1_proc_1 + pi_d_a1_a14_proc_0 + pi_d_a1_a14_proc_1
     - pi_d_a14_a1_proc_0 - pi_d_a14_a1_proc_1 >= 0
 c6: 834 pi_p_a1_a5 + 834 pi_p_a1_a10 + 834 pi_p_a1_a14 + 834 pi_d_a1_a0_proc_0
     + 834 pi_d_a1_a2_proc_0 + 834 pi_d_a1_a3_proc_0 + 834 pi_d_a1_a5_proc_0
     + 834 pi_d_a1_a6_proc_0 + 834 pi_d_a1_a7_proc_0 + 834 pi_d_a1_a9_proc_0
     + 834 pi_d_a1_a10_proc_0 + 834 pi_d_a1_a11_proc_0 + 834 pi_d_a1_a12_proc_0
     + 834 pi_d_a1_a14_proc_0 + pi_y1_a1 + pi_y2_a1_proc_0 >= 0
 c7: 1300 pi_p_a1_a5 + 1300 pi_p_a1_a10 + 1300 pi_p_a1_a14
     + 1300 pi_d_a1_a0_proc_1 + 1300 pi_d_a1_a2_proc_1 + 1300 pi_d_a1_a3_proc_1
     + 1300 pi_d_a1_a4_proc_1 + 1300 pi_d_a1_a5_proc_1 + 1300 pi_d_a1_a6_proc_1
     + 1300 pi_d_a1_a7_proc_1 + 1300 pi_d_a1_a8_proc_1 + 1300 pi_d_a1_a9_proc_1
     + 1300 pi_d_a1_a11_proc_1 + 1300 pi_d_a1_a12_proc_1
     + 1300 pi_d_a1_a13_proc_1 + 1300 pi_d_a1_a14_proc_1 + pi_y1_a1
     + pi_y2_a1_proc_1 >= 0
 c8: pi_p_a2_a0 + pi_p_a2_a3 - pi_p_a4_a2 - pi_p_a7_a2 - pi_d_a0_a2_proc_0
     - pi_d_a0_a2_proc_1 + pi_d_a2_a0_proc_0 + pi_d_a2_a0_proc_1
     - pi_d_a1_a2_proc_0 - pi_d_a1_a2_proc_1 + pi_d_a2_a1_proc_0
     + pi_d_a2_a1_proc_1 + pi_d_a2_a3_proc_0 + pi_d_a2_a3_proc_1
     - pi_d_a3_a2_proc_0 - pi_d_a3_a2_proc_1 + pi_d_a2_a4_proc_1
     - pi_d_a4_a2_proc_1 + pi_d_a2_a5_proc_0 + pi_d_a2_a5_proc_1
     - pi_d_a5_a2_proc_0 - pi_d_a5_a2_proc_1 + pi_d_a2_a6_proc_0
     + pi_d_a2_a6_proc_1 - pi_d_a6_a2_proc_0 - pi_d_a6_a2_proc_1
     + pi_d_a2_a7_proc_0 + pi_d_a2_a7_proc_1 - pi_d_a7_a2_proc_0
     - pi_d_a7_a2_proc_1 + pi_d_a2_a8_proc_1 - pi_d_a8_a2_proc_1
     + pi_d_a2_a9_proc_0 + pi_d_a2_a9_proc_1 - pi_d_a9_a2_proc_0
     - pi_d_a9_a2_proc_1 + pi_d_a2_a10_proc_0 - pi_d_a10_a2_proc_0
     + pi_d_a2_a11_proc_0 + pi_d_a2_a11_proc_1 - pi_d_a11_a2_proc_0
     - pi_d_a11_a2_proc_1 + pi_d_a2_a12_proc_0 + pi_d_a2_a12_proc_1
     - pi_d_a12_a2_proc_0 - pi_d_a12_a2_proc_1 + pi_d_a2_a13_proc_1
     - pi_d_a13_a2_proc_1 + pi_d_a2_a14_proc_0 + pi_d_a2_a14_proc_1
     - pi_d_a14_a2_proc_0 - pi_d_a14_a2_proc_1 >= 0
 c9: 509 pi_p_a2_a0 + 509 pi_p_a2_a3 + 509 pi_d_a2_a0_proc_0
     + 509 pi_d_a2_a1_proc_0 + 509 pi_d_a2_a3_proc_0 + 509 pi_d_a2_a5_proc_0
     + 509 pi_d_a2_a6_proc_0 + 509 pi_d_a2_a7_proc_0 + 509 pi_d_a2_a9_proc_0
     + 509 pi_d_a2_a10_proc_0 + 509 pi_d_a2_a11_proc_0 + 509 pi_d_a2_a12_proc_0
     + 509 pi_d_a2_a14_proc_0 + pi_y1_a2 + pi_y2_a2_proc_0 >= 0
 c10: 1134 pi_p_a2_a0 + 1134 pi_p_a2_a3 + 1134 pi_d_a2_a0_proc_1
      + 1134 pi_d_a2_a1_proc_1 + 1134 pi_d_a2_a3_proc_1 + 1134 pi_d_a2_a4_proc_1
      + 1134 pi_d_a2_a5_proc_1 + 1134 pi_d_a2_a6_proc_1 + 1134 pi_d_a2_a7_proc_1
      + 1134 pi_d_a2_a8_proc_1 + 1134 pi_d_a2_a9_proc_1
      + 1134 pi_d_a2_a11_proc_1 + 1134 pi_d_a2_a12_proc_1
      + 1134 pi_d_a2_a13_proc_1 + 1134 pi_d_a2_a14_proc_1 + pi_y1_a2
      + pi_y2_a2_proc_1 >= 0
 c11: - pi_p_a2_a3 + pi_p_a3_a6 + pi_p_a3_a9 - pi_p_a8_a3 - pi_d_a0_a3_proc_0
      - pi_d_a0_a3_proc_1 + pi_d_a3_a0_proc_0 + pi_d_a3_a0_proc_1
      - pi_d_a1_a3_proc_0 - pi_d_a1_a3_proc_1 + pi_d_a3_a1_proc_0
      + pi_d_a3_a1_proc_1 - pi_d_a2_a3_proc_0 - pi_d_a2_a3_proc_1
      + pi_d_a3_a2_proc_0 + pi_d_a3_a2_proc_1 + pi_d_a3_a4_proc_1
      - pi_d_a4_a3_proc_1 + pi_d_a3_a5_proc_0 + pi_d_a3_a5_proc_1
      - pi_d_a5_a3_proc_0 - pi_d_a5_a3_proc_1 + pi_d_a3_a6_proc_0
      + pi_d_a3_a6_proc_1 - pi_d_a6_a3_proc_0 - pi_d_a6_a3_proc_1
      + pi_d_a3_a7_proc_0 + pi_d_a3_a7_proc_1 - pi_d_a7_a3_proc_0
      - pi_d_a7_a3_proc_1 + pi_d_a3_a8_proc_1 - pi_d_a8_a3_proc_1
      + pi_d_a3_a9_proc_0 + pi_d_a3_a9_proc_1 - pi_d_a9_a3_proc_0
      - pi_d_a9_a3_proc_1 + pi_d_a3_a10_proc_0 - pi_d_a10_a3_proc_0
      + pi_d_a3_a11_proc_0 + pi_d_a3_a11_proc_1 - pi_d_a11_a3_proc_0
      - pi_d_a11_a3_proc_1 + pi_d_a3_a12_proc_0 + pi_d_a3_a12_proc_1
      - pi_d_a12_a3_proc_0 - pi_d_a12_a3_proc_1 + pi_d_a3_a13_proc_1
      - pi_d_a13_a3_proc_1 + pi_d_a3_a14_proc_0 + pi_d_a3_a14_proc_1
      - pi_d_a14_a3_proc_0 - pi_d_a14_a3_proc_1 >= 0
 c12: 1204 pi_p_a3_a6 + 1204 pi_p_a3_a9 + 1204 pi_d_a3_a0_proc_0
      + 1204 pi_d_a3_a1_proc_0 + 1204 pi_d_a3_a2_proc_0 + 1204 pi_d_a3_a5_proc_0
      + 1204 pi_d_a3_a6_proc_0 + 1204 pi_d_a3_a7_proc_0 + 1204 pi_d_a3_a9_proc_0
      + 1204 pi_d_a3_a10_proc_0 + 1204 pi_d_a3_a11_proc_0
      + 1204 pi_d_a3_a12_proc_0 + 1204 pi_d_a3_a14_proc_0 + pi_y1_a3
      + pi_y2_a3_proc_0 >= 0
 c13: 1200 pi_p_a3_a6 + 1200 pi_p_a3_a9 + 1200 pi_d_a3_a0_proc_1
      + 1200 pi_d_a3_a1_proc_1 + 1200 pi_d_a3_a2_proc_1 + 1200 pi_d_a3_a4_proc_1
      + 1200 pi_d_a3_a5_proc_1 + 1200 pi_d_a3_a6_proc_1 + 1200 pi_d_a3_a7_proc_1
      + 1200 pi_d_a3_a8_proc_1 + 1200 pi_d_a3_a9_proc_1
      + 1200 pi_d_a3_a11_proc_1 + 1200 pi_d_a3_a12_proc_1
      + 1200 pi_d_a3_a13_proc_1 + 1200 pi_d_a3_a14_proc_1 + pi_y1_a3
      + pi_y2_a3_proc_1 >= 0
 c14: pi_p_a4_a2 - pi_p_a6_a4 - pi_p_a7_a4 - pi_d_a0_a4_proc_1
      + pi_d_a4_a0_proc_1 - pi_d_a1_a4_proc_1 + pi_d_a4_a1_proc_1
      - pi_d_a2_a4_proc_1 + pi_d_a4_a2_proc_1 - pi_d_a3_a4_proc_1
      + pi_d_a4_a3_proc_1 + pi_d_a4_a5_proc_1 - pi_d_a5_a4_proc_1
      + pi_d_a4_a6_proc_1 - pi_d_a6_a4_proc_1 + pi_d_a4_a7_proc_1
      - pi_d_a7_a4_proc_1 + pi_d_a4_a8_proc_1 - pi_d_a8_a4_proc_1
      + pi_d_a4_a9_proc_1 - pi_d_a9_a4_proc_1 + pi_d_a4_a11_proc_1
      - pi_d_a11_a4_proc_1 + pi_d_a4_a12_proc_1 - pi_d_a12_a4_proc_1
      + pi_d_a4_a13_proc_1 - pi_d_a13_a4_proc_1 + pi_d_a4_a14_proc_1
      - pi_d_a14_a4_proc_1 >= 0
 c15: 1035 pi_p_a4_a2 + 1035 pi_d_a4_a0_proc_1 + 1035 pi_d_a4_a1_proc_1
      + 1035 pi_d_a4_a2_proc_1 + 1035 pi_d_a4_a3_proc_1 + 1035 pi_d_a4_a5_proc_1
      + 1035 pi_d_a4_a6_proc_1 + 1035 pi_d_a4_a7_proc_1 + 1035 pi_d_a4_a8_proc_1
      + 1035 pi_d_a4_a9_proc_1 + 1035 pi_d_a4_a11_proc_1
      + 1035 pi_d_a4_a12_proc_1 + 1035 pi_d_a4_a13_proc_1
      + 1035 pi_d_a4_a14_proc_1 + pi_y1_a4 + pi_y2_a4_proc_1 >= 0
 c16: - pi_p_a1_a5 + pi_p_a5_a8 - pi_p_a12_a5 - pi_d_a0_a5_proc_0
      - pi_d_a0_a5_proc_1 + pi_d_a5_a0_proc_0 + pi_d_a5_a0_proc_1
      - pi_d_a1_a5_proc_0 - pi_d_a1_a5_proc_1 + pi_d_a5_a1_proc_0
      + pi_d_a5_a1_proc_1 - pi_d_a2_a5_proc_0 - pi_d_a2_a5_proc_1
      + pi_d_a5_a2_proc_0 + pi_d_a5_a2_proc_1 - pi_d_a3_a5_proc_0
      - pi_d_a3_a5_proc_1 + pi_d_a5_a3_proc_0 + pi_d_a5_a3_proc_1
      - pi_d_a4_a5_proc_1 + pi_d_a5_a4_proc_1 + pi_d_a5_a6_proc_0
      + pi_d_a5_a6_proc_1 - pi_d_a6_a5_proc_0 - pi_d_a6_a5_proc_1
      + pi_d_a5_a7_proc_0 + pi_d_a5_a7_proc_1 - pi_d_a7_a5_proc_0
      - pi_d_a7_a5_proc_1 + pi_d_a5_a8_proc_1 - pi_d_a8_a5_proc_1
      + pi_d_a5_a9_proc_0 + pi_d_a5_a9_proc_1 - pi_d_a9_a5_proc_0
      - pi_d_a9_a5_proc_1 + pi_d_a5_a10_proc_0 - pi_d_a10_a5_proc_0
      + pi_d_a5_a11_proc_0 + pi_d_a5_a11_proc_1 - pi_d_a11_a5_proc_0
      - pi_d_a11_a5_proc_1 + pi_d_a5_a12_proc_0 + pi_d_a5_a12_proc_1
      - pi_d_a12_a5_proc_0 - pi_d_a12_a5_proc_1 + pi_d_a5_a13_proc_1
      - pi_d_a13_a5_proc_1 + pi_d_a5_a14_proc_0 + pi_d_a5_a14_proc_1
      - pi_d_a14_a5_proc_0 - pi_d_a14_a5_proc_1 >= 0
 c17: 577 pi_p_a5_a8 + 577 pi_p_a5_a5 + 577 pi_d_a5_a0_proc_0
      + 577 pi_d_a5_a1_proc_0 + 577 pi_d_a5_a2_proc_0 + 577 pi_d_a5_a3_proc_0
      + 577 pi_d_a5_a6_proc_0 + 577 pi_d_a5_a7_proc_0 + 577 pi_d_a5_a9_proc_0
      + 577 pi_d_a5_a10_proc_0 + 577 pi_d_a5_a11_proc_0 + 577 pi_d_a5_a12_proc_0
      + 577 pi_d_a5_a14_proc_0 + pi_y1_a5 + pi_y2_a5_proc_0 >= 0
 c18: 809 pi_p_a5_a8 + 809 pi_p_a5_a5 + 809 pi_d_a5_a0_proc_1
      + 809 pi_d_a5_a1_proc_1 + 809 pi_d_a5_a2_proc_1 + 809 pi_d_a5_a3_proc_1
      + 809 pi_d_a5_a4_proc_1 + 809 pi_d_a5_a6_proc_1 + 809 pi_d_a5_a7_proc_1
      + 809 pi_d_a5_a8_proc_1 + 809 pi_d_a5_a9_proc_1 + 809 pi_d_a5_a11_proc_1
      + 809 pi_d_a5_a12_proc_1 + 809 pi_d_a5_a13_proc_1 + 809 pi_d_a5_a14_proc_1
      + pi_y1_a5 + pi_y2_a5_proc_1 >= 0
 c19: - pi_p_a3_a6 - pi_p_a7_a6 + pi_p_a6_a4 - pi_d_a0_a6_proc_0
      - pi_d_a0_a6_proc_1 + pi_d_a6_a0_proc_0 + pi_d_a6_a0_proc_1
      - pi_d_a1_a6_proc_0 - pi_d_a1_a6_proc_1 + pi_d_a6_a1_proc_0
      + pi_d_a6_a1_proc_1 - pi_d_a2_a6_proc_0 - pi_d_a2_a6_proc_1
      + pi_d_a6_a2_proc_0 + pi_d_a6_a2_proc_1 - pi_d_a3_a6_proc_0
      - pi_d_a3_a6_proc_1 + pi_d_a6_a3_proc_0 + pi_d_a6_a3_proc_1
      - pi_d_a4_a6_proc_1 + pi_d_a6_a4_proc_1 - pi_d_a5_a6_proc_0
      - pi_d_a5_a6_proc_1 + pi_d_a6_a5_proc_0 + pi_d_a6_a5_proc_1
      + pi_d_a6_a7_proc_0 + pi_d_a6_a7_proc_1 - pi_d_a7_a6_proc_0
      - pi_d_a7_a6_proc_1 + pi_d_a6_a8_proc_1 - pi_d_a8_a6_proc_1
      + pi_d_a6_a9_proc_0 + pi_d_a6_a9_proc_1 - pi_d_a9_a6_proc_0
      - pi_d_a9_a6_proc_1 + pi_d_a6_a10_proc_0 - pi_d_a10_a6_proc_0
      + pi_d_a6_a11_proc_0 + pi_d_a6_a11_proc_1 - pi_d_a11_a6_proc_0
      - pi_d_a11_a6_proc_1 + pi_d_a6_a12_proc_0 + pi_d_a6_a12_proc_1
      - pi_d_a12_a6_proc_0 - pi_d_a12_a6_proc_1 + pi_d_a6_a13_proc_1
      - pi_d_a13_a6_proc_1 + pi_d_a6_a14_proc_0 + pi_d_a6_a14_proc_1
      - pi_d_a14_a6_proc_0 - pi_d_a14_a6_proc_1 >= 0
 c20: 314 pi_p_a6_a4 + 314 pi_d_a6_a0_proc_0 + 314 pi_d_a6_a1_proc_0
      + 314 pi_d_a6_a2_proc_0 + 314 pi_d_a6_a3_proc_0 + 314 pi_d_a6_a5_proc_0
      + 314 pi_d_a6_a7_proc_0 + 314 pi_d_a6_a9_proc_0 + 314 pi_d_a6_a10_proc_0
      + 314 pi_d_a6_a11_proc_0 + 314 pi_d_a6_a12_proc_0 + 314 pi_d_a6_a14_proc_0
      + pi_y1_a6 + pi_y2_a6_proc_0 >= 0
 c21: 947 pi_p_a6_a4 + 947 pi_d_a6_a0_proc_1 + 947 pi_d_a6_a1_proc_1
      + 947 pi_d_a6_a2_proc_1 + 947 pi_d_a6_a3_proc_1 + 947 pi_d_a6_a4_proc_1
      + 947 pi_d_a6_a5_proc_1 + 947 pi_d_a6_a7_proc_1 + 947 pi_d_a6_a8_proc_1
      + 947 pi_d_a6_a9_proc_1 + 947 pi_d_a6_a11_proc_1 + 947 pi_d_a6_a12_proc_1
      + 947 pi_d_a6_a13_proc_1 + 947 pi_d_a6_a14_proc_1 + pi_y1_a6
      + pi_y2_a6_proc_1 >= 0
 c22: pi_p_a7_a6 + pi_p_a7_a4 + pi_p_a7_a2 - pi_d_a0_a7_proc_0
      - pi_d_a0_a7_proc_1 + pi_d_a7_a0_proc_0 + pi_d_a7_a0_proc_1
      - pi_d_a1_a7_proc_0 - pi_d_a1_a7_proc_1 + pi_d_a7_a1_proc_0
      + pi_d_a7_a1_proc_1 - pi_d_a2_a7_proc_0 - pi_d_a2_a7_proc_1
      + pi_d_a7_a2_proc_0 + pi_d_a7_a2_proc_1 - pi_d_a3_a7_proc_0
      - pi_d_a3_a7_proc_1 + pi_d_a7_a3_proc_0 + pi_d_a7_a3_proc_1
      - pi_d_a4_a7_proc_1 + pi_d_a7_a4_proc_1 - pi_d_a5_a7_proc_0
      - pi_d_a5_a7_proc_1 + pi_d_a7_a5_proc_0 + pi_d_a7_a5_proc_1
      - pi_d_a6_a7_proc_0 - pi_d_a6_a7_proc_1 + pi_d_a7_a6_proc_0
      + pi_d_a7_a6_proc_1 + pi_d_a7_a8_proc_1 - pi_d_a8_a7_proc_1
      + pi_d_a7_a9_proc_0 + pi_d_a7_a9_proc_1 - pi_d_a9_a7_proc_0
      - pi_d_a9_a7_proc_1 + pi_d_a7_a10_proc_0 - pi_d_a10_a7_proc_0
      + pi_d_a7_a11_proc_0 + pi_d_a7_a11_proc_1 - pi_d_a11_a7_proc_0
      - pi_d_a11_a7_proc_1 + pi_d_a7_a12_proc_0 + pi_d_a7_a12_proc_1
      - pi_d_a12_a7_proc_0 - pi_d_a12_a7_proc_1 + pi_d_a7_a13_proc_1
      - pi_d_a13_a7_proc_1 + pi_d_a7_a14_proc_0 + pi_d_a7_a14_proc_1
      - pi_d_a14_a7_proc_0 - pi_d_a14_a7_proc_1 >= 0
 c23: 840 pi_p_a7_a6 + 840 pi_p_a7_a4 + 840 pi_p_a7_a2 + 840 pi_d_a7_a0_proc_0
      + 840 pi_d_a7_a1_proc_0 + 840 pi_d_a7_a2_proc_0 + 840 pi_d_a7_a3_proc_0
      + 840 pi_d_a7_a5_proc_0 + 840 pi_d_a7_a6_proc_0 + 840 pi_d_a7_a9_proc_0
      + 840 pi_d_a7_a10_proc_0 + 840 pi_d_a7_a11_proc_0 + 840 pi_d_a7_a12_proc_0
      + 840 pi_d_a7_a14_proc_0 + pi_y1_a7 + pi_y2_a7_proc_0 >= 0
 c24: 1091 pi_p_a7_a6 + 1091 pi_p_a7_a4 + 1091 pi_p_a7_a2
      + 1091 pi_d_a7_a0_proc_1 + 1091 pi_d_a7_a1_proc_1 + 1091 pi_d_a7_a2_proc_1
      + 1091 pi_d_a7_a3_proc_1 + 1091 pi_d_a7_a4_proc_1 + 1091 pi_d_a7_a5_proc_1
      + 1091 pi_d_a7_a6_proc_1 + 1091 pi_d_a7_a8_proc_1 + 1091 pi_d_a7_a9_proc_1
      + 1091 pi_d_a7_a11_proc_1 + 1091 pi_d_a7_a12_proc_1
      + 1091 pi_d_a7_a13_proc_1 + 1091 pi_d_a7_a14_proc_1 + pi_y1_a7
      + pi_y2_a7_proc_1 >= 0
 c25: - pi_p_a5_a8 + pi_p_a8_a3 - pi_p_a10_a8 - pi_d_a0_a8_proc_1
      + pi_d_a8_a0_proc_1 - pi_d_a1_a8_proc_1 + pi_d_a8_a1_proc_1
      - pi_d_a2_a8_proc_1 + pi_d_a8_a2_proc_1 - pi_d_a3_a8_proc_1
      + pi_d_a8_a3_proc_1 - pi_d_a4_a8_proc_1 + pi_d_a8_a4_proc_1
      - pi_d_a5_a8_proc_1 + pi_d_a8_a5_proc_1 - pi_d_a6_a8_proc_1
      + pi_d_a8_a6_proc_1 - pi_d_a7_a8_proc_1 + pi_d_a8_a7_proc_1
      + pi_d_a8_a9_proc_1 - pi_d_a9_a8_proc_1 + pi_d_a8_a11_proc_1
      - pi_d_a11_a8_proc_1 + pi_d_a8_a12_proc_1 - pi_d_a12_a8_proc_1
      + pi_d_a8_a13_proc_1 - pi_d_a13_a8_proc_1 + pi_d_a8_a14_proc_1
      - pi_d_a14_a8_proc_1 >= 0
 c26: 1034 pi_p_a8_a3 + 1034 pi_d_a8_a0_proc_1 + 1034 pi_d_a8_a1_proc_1
      + 1034 pi_d_a8_a2_proc_1 + 1034 pi_d_a8_a3_proc_1 + 1034 pi_d_a8_a4_proc_1
      + 1034 pi_d_a8_a5_proc_1 + 1034 pi_d_a8_a6_proc_1 + 1034 pi_d_a8_a7_proc_1
      + 1034 pi_d_a8_a9_proc_1 + 1034 pi_d_a8_a11_proc_1
      + 1034 pi_d_a8_a12_proc_1 + 1034 pi_d_a8_a13_proc_1
      + 1034 pi_d_a8_a14_proc_1 + pi_y1_a8 + pi_y2_a8_proc_1 >= 0
 c27: - pi_p_a3_a9 - pi_p_a12_a9 + pi_p_a9_a13 - pi_d_a0_a9_proc_0
      - pi_d_a0_a9_proc_1 + pi_d_a9_a0_proc_0 + pi_d_a9_a0_proc_1
      - pi_d_a1_a9_proc_0 - pi_d_a1_a9_proc_1 + pi_d_a9_a1_proc_0
      + pi_d_a9_a1_proc_1 - pi_d_a2_a9_proc_0 - pi_d_a2_a9_proc_1
      + pi_d_a9_a2_proc_0 + pi_d_a9_a2_proc_1 - pi_d_a3_a9_proc_0
      - pi_d_a3_a9_proc_1 + pi_d_a9_a3_proc_0 + pi_d_a9_a3_proc_1
      - pi_d_a4_a9_proc_1 + pi_d_a9_a4_proc_1 - pi_d_a5_a9_proc_0
      - pi_d_a5_a9_proc_1 + pi_d_a9_a5_proc_0 + pi_d_a9_a5_proc_1
      - pi_d_a6_a9_proc_0 - pi_d_a6_a9_proc_1 + pi_d_a9_a6_proc_0
      + pi_d_a9_a6_proc_1 - pi_d_a7_a9_proc_0 - pi_d_a7_a9_proc_1
      + pi_d_a9_a7_proc_0 + pi_d_a9_a7_proc_1 - pi_d_a8_a9_proc_1
      + pi_d_a9_a8_proc_1 + pi_d_a9_a10_proc_0 - pi_d_a10_a9_proc_0
      + pi_d_a9_a11_proc_0 + pi_d_a9_a11_proc_1 - pi_d_a11_a9_proc_0
      - pi_d_a11_a9_proc_1 + pi_d_a9_a12_proc_0 + pi_d_a9_a12_proc_1
      - pi_d_a12_a9_proc_0 - pi_d_a12_a9_proc_1 + pi_d_a9_a13_proc_1
      - pi_d_a13_a9_proc_1 + pi_d_a9_a14_proc_0 + pi_d_a9_a14_proc_1
      - pi_d_a14_a9_proc_0 - pi_d_a14_a9_proc_1 >= 0
 c28: 1239 pi_p_a9_a13 + 1239 pi_d_a9_a0_proc_0 + 1239 pi_d_a9_a1_proc_0
      + 1239 pi_d_a9_a2_proc_0 + 1239 pi_d_a9_a3_proc_0 + 1239 pi_d_a9_a5_proc_0
      + 1239 pi_d_a9_a6_proc_0 + 1239 pi_d_a9_a7_proc_0
      + 1239 pi_d_a9_a10_proc_0 + 1239 pi_d_a9_a11_proc_0
      + 1239 pi_d_a9_a12_proc_0 + 1239 pi_d_a9_a14_proc_0 + pi_y1_a9
      + pi_y2_a9_proc_0 >= 0
 c29: 934 pi_p_a9_a13 + 934 pi_d_a9_a0_proc_1 + 934 pi_d_a9_a1_proc_1
      + 934 pi_d_a9_a2_proc_1 + 934 pi_d_a9_a3_proc_1 + 934 pi_d_a9_a4_proc_1
      + 934 pi_d_a9_a5_proc_1 + 934 pi_d_a9_a6_proc_1 + 934 pi_d_a9_a7_proc_1
      + 934 pi_d_a9_a8_proc_1 + 934 pi_d_a9_a11_proc_1 + 934 pi_d_a9_a12_proc_1
      + 934 pi_d_a9_a13_proc_1 + 934 pi_d_a9_a14_proc_1 + pi_y1_a9
      + pi_y2_a9_proc_1 >= 0
 c30: - pi_p_a1_a10 - pi_p_a11_a10 + pi_p_a10_a8 - pi_d_a0_a10_proc_0
      + pi_d_a10_a0_proc_0 - pi_d_a1_a10_proc_0 + pi_d_a10_a1_proc_0
      - pi_d_a2_a10_proc_0 + pi_d_a10_a2_proc_0 - pi_d_a3_a10_proc_0
      + pi_d_a10_a3_proc_0 - pi_d_a5_a10_proc_0 + pi_d_a10_a5_proc_0
      - pi_d_a6_a10_proc_0 + pi_d_a10_a6_proc_0 - pi_d_a7_a10_proc_0
      + pi_d_a10_a7_proc_0 - pi_d_a9_a10_proc_0 + pi_d_a10_a9_proc_0
      + pi_d_a10_a11_proc_0 - pi_d_a11_a10_proc_0 + pi_d_a10_a12_proc_0
      - pi_d_a12_a10_proc_0 + pi_d_a10_a14_proc_0 - pi_d_a14_a10_proc_0 >= 0
 c31: 1137 pi_p_a10_a8 + 1137 pi_d_a10_a0_proc_0 + 1137 pi_d_a10_a1_proc_0
      + 1137 pi_d_a10_a2_proc_0 + 1137 pi_d_a10_a3_proc_0
      + 1137 pi_d_a10_a5_proc_0 + 1137 pi_d_a10_a6_proc_0
      + 1137 pi_d_a10_a7_proc_0 + 1137 pi_d_a10_a9_proc_0
      + 1137 pi_d_a10_a11_proc_0 + 1137 pi_d_a10_a12_proc_0
      + 1137 pi_d_a10_a14_proc_0 + pi_y1_a10 + pi_y2_a10_proc_0 >= 0
 c32: pi_p_a11_a10 + pi_p_a11_a12 - pi_d_a0_a11_proc_0 - pi_d_a0_a11_proc_1
      + pi_d_a11_a0_proc_0 + pi_d_a11_a0_proc_1 - pi_d_a1_a11_proc_0
      - pi_d_a1_a11_proc_1 + pi_d_a11_a1_proc_0 + pi_d_a11_a1_proc_1
      - pi_d_a2_a11_proc_0 - pi_d_a2_a11_proc_1 + pi_d_a11_a2_proc_0
      + pi_d_a11_a2_proc_1 - pi_d_a3_a11_proc_0 - pi_d_a3_a11_proc_1
      + pi_d_a11_a3_proc_0 + pi_d_a11_a3_proc_1 - pi_d_a4_a11_proc_1
      + pi_d_a11_a4_proc_1 - pi_d_a5_a11_proc_0 - pi_d_a5_a11_proc_1
      + pi_d_a11_a5_proc_0 + pi_d_a11_a5_proc_1 - pi_d_a6_a11_proc_0
      - pi_d_a6_a11_proc_1 + pi_d_a11_a6_proc_0 + pi_d_a11_a6_proc_1
      - pi_d_a7_a11_proc_0 - pi_d_a7_a11_proc_1 + pi_d_a11_a7_proc_0
      + pi_d_a11_a7_proc_1 - pi_d_a8_a11_proc_1 + pi_d_a11_a8_proc_1
      - pi_d_a9_a11_proc_0 - pi_d_a9_a11_proc_1 + pi_d_a11_a9_proc_0
      + pi_d_a11_a9_proc_1 - pi_d_a10_a11_proc_0 + pi_d_a11_a10_proc_0
      + pi_d_a11_a12_proc_0 + pi_d_a11_a12_proc_1 - pi_d_a12_a11_proc_0
      - pi_d_a12_a11_proc_1 + pi_d_a11_a13_proc_1 - pi_d_a13_a11_proc_1
      + pi_d_a11_a14_proc_0 + pi_d_a11_a14_proc_1 - pi_d_a14_a11_proc_0
      - pi_d_a14_a11_proc_1 >= 0
 c33: 463 pi_p_a11_a10 + 463 pi_p_a11_a11 + 463 pi_p_a11_a12
      + 463 pi_d_a11_a0_proc_0 + 463 pi_d_a11_a1_proc_0 + 463 pi_d_a11_a2_proc_0
      + 463 pi_d_a11_a3_proc_0 + 463 pi_d_a11_a5_proc_0 + 463 pi_d_a11_a6_proc_0
      + 463 pi_d_a11_a7_proc_0 + 463 pi_d_a11_a9_proc_0
      + 463 pi_d_a11_a10_proc_0 + 463 pi_d_a11_a12_proc_0
      + 463 pi_d_a11_a14_proc_0 + pi_y1_a11 + pi_y2_a11_proc_0 >= 0
 c34: 1204 pi_p_a11_a10 + 1204 pi_p_a11_a11 + 1204 pi_p_a11_a12
      + 1204 pi_d_a11_a0_proc_1 + 1204 pi_d_a11_a1_proc_1
      + 1204 pi_d_a11_a2_proc_1 + 1204 pi_d_a11_a3_proc_1
      + 1204 pi_d_a11_a4_proc_1 + 1204 pi_d_a11_a5_proc_1
      + 1204 pi_d_a11_a6_proc_1 + 1204 pi_d_a11_a7_proc_1
      + 1204 pi_d_a11_a8_proc_1 + 1204 pi_d_a11_a9_proc_1
      + 1204 pi_d_a11_a12_proc_1 + 1204 pi_d_a11_a13_proc_1
      + 1204 pi_d_a11_a14_proc_1 + pi_y1_a11 + pi_y2_a11_proc_1 >= 0
 c35: pi_p_a12_a9 + pi_p_a12_a5 - pi_p_a14_a12 - pi_p_a11_a12
      - pi_d_a0_a12_proc_0 - pi_d_a0_a12_proc_1 + pi_d_a12_a0_proc_0
      + pi_d_a12_a0_proc_1 - pi_d_a1_a12_proc_0 - pi_d_a1_a12_proc_1
      + pi_d_a12_a1_proc_0 + pi_d_a12_a1_proc_1 - pi_d_a2_a12_proc_0
      - pi_d_a2_a12_proc_1 + pi_d_a12_a2_proc_0 + pi_d_a12_a2_proc_1
      - pi_d_a3_a12_proc_0 - pi_d_a3_a12_proc_1 + pi_d_a12_a3_proc_0
      + pi_d_a12_a3_proc_1 - pi_d_a4_a12_proc_1 + pi_d_a12_a4_proc_1
      - pi_d_a5_a12_proc_0 - pi_d_a5_a12_proc_1 + pi_d_a12_a5_proc_0
      + pi_d_a12_a5_proc_1 - pi_d_a6_a12_proc_0 - pi_d_a6_a12_proc_1
      + pi_d_a12_a6_proc_0 + pi_d_a12_a6_proc_1 - pi_d_a7_a12_proc_0
      - pi_d_a7_a12_proc_1 + pi_d_a12_a7_proc_0 + pi_d_a12_a7_proc_1
      - pi_d_a8_a12_proc_1 + pi_d_a12_a8_proc_1 - pi_d_a9_a12_proc_0
      - pi_d_a9_a12_proc_1 + pi_d_a12_a9_proc_0 + pi_d_a12_a9_proc_1
      - pi_d_a10_a12_proc_0 + pi_d_a12_a10_proc_0 - pi_d_a11_a12_proc_0
      - pi_d_a11_a12_proc_1 + pi_d_a12_a11_proc_0 + pi_d_a12_a11_proc_1
      + pi_d_a12_a13_proc_1 - pi_d_a13_a12_proc_1 + pi_d_a12_a14_proc_0
      + pi_d_a12_a14_proc_1 - pi_d_a14_a12_proc_0 - pi_d_a14_a12_proc_1 >= 0
 c36: 1087 pi_p_a12_a9 + 1087 pi_p_a12_a5 + 1087 pi_d_a12_a0_proc_0
      + 1087 pi_d_a12_a1_proc_0 + 1087 pi_d_a12_a2_proc_0
      + 1087 pi_d_a12_a3_proc_0 + 1087 pi_d_a12_a5_proc_0
      + 1087 pi_d_a12_a6_proc_0 + 1087 pi_d_a12_a7_proc_0
      + 1087 pi_d_a12_a9_proc_0 + 1087 pi_d_a12_a10_proc_0
      + 1087 pi_d_a12_a11_proc_0 + 1087 pi_d_a12_a14_proc_0 + pi_y1_a12
      + pi_y2_a12_proc_0 >= 0
 c37: 1233 pi_p_a12_a9 + 1233 pi_p_a12_a5 + 1233 pi_d_a12_a0_proc_1
      + 1233 pi_d_a12_a1_proc_1 + 1233 pi_d_a12_a2_proc_1
      + 1233 pi_d_a12_a3_proc_1 + 1233 pi_d_a12_a4_proc_1
      + 1233 pi_d_a12_a5_proc_1 + 1233 pi_d_a12_a6_proc_1
      + 1233 pi_d_a12_a7_proc_1 + 1233 pi_d_a12_a8_proc_1
      + 1233 pi_d_a12_a9_proc_1 + 1233 pi_d_a12_a11_proc_1
      + 1233 pi_d_a12_a13_proc_1 + 1233 pi_d_a12_a14_proc_1 + pi_y1_a12
      + pi_y2_a12_proc_1 >= 0
 c38: - pi_p_a9_a13 - pi_d_a0_a13_proc_1 + pi_d_a13_a0_proc_1
      - pi_d_a1_a13_proc_1 + pi_d_a13_a1_proc_1 - pi_d_a2_a13_proc_1
      + pi_d_a13_a2_proc_1 - pi_d_a3_a13_proc_1 + pi_d_a13_a3_proc_1
      - pi_d_a4_a13_proc_1 + pi_d_a13_a4_proc_1 - pi_d_a5_a13_proc_1
      + pi_d_a13_a5_proc_1 - pi_d_a6_a13_proc_1 + pi_d_a13_a6_proc_1
      - pi_d_a7_a13_proc_1 + pi_d_a13_a7_proc_1 - pi_d_a8_a13_proc_1
      + pi_d_a13_a8_proc_1 - pi_d_a9_a13_proc_1 + pi_d_a13_a9_proc_1
      - pi_d_a11_a13_proc_1 + pi_d_a13_a11_proc_1 - pi_d_a12_a13_proc_1
      + pi_d_a13_a12_proc_1 + pi_d_a13_a14_proc_1 - pi_d_a14_a13_proc_1 >= 0
 c39: 962 pi_p_a13_a13 + 962 pi_d_a13_a0_proc_1 + 962 pi_d_a13_a1_proc_1
      + 962 pi_d_a13_a2_proc_1 + 962 pi_d_a13_a3_proc_1 + 962 pi_d_a13_a4_proc_1
      + 962 pi_d_a13_a5_proc_1 + 962 pi_d_a13_a6_proc_1 + 962 pi_d_a13_a7_proc_1
      + 962 pi_d_a13_a8_proc_1 + 962 pi_d_a13_a9_proc_1
      + 962 pi_d_a13_a11_proc_1 + 962 pi_d_a13_a12_proc_1
      + 962 pi_d_a13_a14_proc_1 + pi_y1_a13 + pi_y2_a13_proc_1 >= 0
 c40: - pi_p_a1_a14 + pi_p_a14_a12 - pi_d_a0_a14_proc_0 - pi_d_a0_a14_proc_1
      + pi_d_a14_a0_proc_0 + pi_d_a14_a0_proc_1 - pi_d_a1_a14_proc_0
      - pi_d_a1_a14_proc_1 + pi_d_a14_a1_proc_0 + pi_d_a14_a1_proc_1
      - pi_d_a2_a14_proc_0 - pi_d_a2_a14_proc_1 + pi_d_a14_a2_proc_0
      + pi_d_a14_a2_proc_1 - pi_d_a3_a14_proc_0 - pi_d_a3_a14_proc_1
      + pi_d_a14_a3_proc_0 + pi_d_a14_a3_proc_1 - pi_d_a4_a14_proc_1
      + pi_d_a14_a4_proc_1 - pi_d_a5_a14_proc_0 - pi_d_a5_a14_proc_1
      + pi_d_a14_a5_proc_0 + pi_d_a14_a5_proc_1 - pi_d_a6_a14_proc_0
      - pi_d_a6_a14_proc_1 + pi_d_a14_a6_proc_0 + pi_d_a14_a6_proc_1
      - pi_d_a7_a14_proc_0 - pi_d_a7_a14_proc_1 + pi_d_a14_a7_proc_0
      + pi_d_a14_a7_proc_1 - pi_d_a8_a14_proc_1 + pi_d_a14_a8_proc_1
      - pi_d_a9_a14_proc_0 - pi_d_a9_a14_proc_1 + pi_d_a14_a9_proc_0
      + pi_d_a14_a9_proc_1 - pi_d_a10_a14_proc_0 + pi_d_a14_a10_proc_0
      - pi_d_a11_a14_proc_0 - pi_d_a11_a14_proc_1 + pi_d_a14_a11_proc_0
      + pi_d_a14_a11_proc_1 - pi_d_a12_a14_proc_0 - pi_d_a12_a14_proc_1
      + pi_d_a14_a12_proc_0 + pi_d_a14_a12_proc_1 - pi_d_a13_a14_proc_1
      + pi_d_a14_a13_proc_1 >= 0
 c41: 948 pi_p_a14_a12 + 948 pi_d_a14_a0_proc_0 + 948 pi_d_a14_a1_proc_0
      + 948 pi_d_a14_a2_proc_0 + 948 pi_d_a14_a3_proc_0 + 948 pi_d_a14_a5_proc_0
      + 948 pi_d_a14_a6_proc_0 + 948 pi_d_a14_a7_proc_0 + 948 pi_d_a14_a9_proc_0
      + 948 pi_d_a14_a10_proc_0 + 948 pi_d_a14_a11_proc_0
      + 948 pi_d_a14_a12_proc_0 + pi_y1_a14 + pi_y2_a14_proc_0 >= 0
 c42: 811 pi_p_a14_a12 + 811 pi_d_a14_a0_proc_1 + 811 pi_d_a14_a1_proc_1
      + 811 pi_d_a14_a2_proc_1 + 811 pi_d_a14_a3_proc_1 + 811 pi_d_a14_a4_proc_1
      + 811 pi_d_a14_a5_proc_1 + 811 pi_d_a14_a6_proc_1 + 811 pi_d_a14_a7_proc_1
      + 811 pi_d_a14_a8_proc_1 + 811 pi_d_a14_a9_proc_1
      + 811 pi_d_a14_a11_proc_1 + 811 pi_d_a14_a12_proc_1
      + 811 pi_d_a14_a13_proc_1 + pi_y1_a14 + pi_y2_a14_proc_1 >= 0

Bounds
       pi_y1_a0 Free
       pi_y1_a1 Free
       pi_y1_a2 Free
       pi_y1_a3 Free
       pi_y1_a4 Free
       pi_y1_a5 Free
       pi_y1_a6 Free
       pi_y1_a7 Free
       pi_y1_a8 Free
       pi_y1_a9 Free
       pi_y1_a10 Free
       pi_y1_a11 Free
       pi_y1_a12 Free
       pi_y1_a13 Free
       pi_y1_a14 Free
End
